%datafile

D = 10;
T = 15;
MaxDT = 9;
MaxDL = 5;
MinDT = 2;

N1 = 3;
N2 = 3;
N3 = 3;

A = 2;

Afinidad = [| false,true,true,true,true,true,true,true,true,true,true,true,true,true,true
            | true,false,true,true,true,true,true,true,true,true,true,true,true,true,true
            | true,true,false,true,true,true,true,true,true,true,true,true,true,true,true
            | true,true,true,false,true,true,true,true,true,true,true,true,true,true,true
            | true,true,true,true,false,true,true,true,true,true,true,true,true,true,true
            | true,true,true,true,true,false,true,true,true,true,true,true,true,true,true
            | true,true,true,true,true,true,false,true,true,true,true,true,true,true,true
            | true,true,true,true,true,true,true,false,true,true,true,true,true,true,true
            | true,true,true,true,true,true,true,true,false,true,true,true,true,true,true
            | true,true,true,true,true,true,true,true,true,false,true,true,true,true,true
            | true,true,true,true,true,true,true,true,true,true,false,true,true,true,true
            | true,true,true,true,true,true,true,true,true,true,true,false,true,true,true
            | true,true,true,true,true,true,true,true,true,true,true,true,false,true,true
            | true,true,true,true,true,true,true,true,true,true,true,true,true,false,true
            | true,true,true,true,true,true,true,true,true,true,true,true,true,true,false
            |];

C = 3;
Categorias = [1, 1, 1, 1, 1, 2, 2, 2, 2, 2, 3, 3, 3, 3, 3];
MinTC = [1, 1, 1, 1, 1, 1, 1, 1, 1];

diasLibres = [| true, false, false, false, false, false, false, false, false, false
              | false, true, false, false, false, false, false, false, false, false
              | false, false, true, false, false, false, false, false, false, false
              | false, false, false, true, false, false, false, false, false, false
              | false, false, false, false, true, false, false, false, false, false
              | false, false, false, false, false, true, false, false, false, false
              | false, false, false, false, false, false, true, false, false, false
              | false, false, false, false, false, false, false, true, false, false
              | false, false, false, false, false, false, false, false, true, false
              | false, false, false, false, false, false, false, false, false, true
              | true, false, false, false, false, false, false, false, false, false
              | false, true, false, false, false, false, false, false, false, false
              | false, false, false, false, false, false, false, false, false, false
              | false, false, false, true, false, false, false, false, false, false
              | false, false, false, false, true, false, false, false, false, false
              |];
              
turnosNoDeseados = [| L1, T2, L1, L1, L1, L1, L1, L1, L1, L1
                    | L1, L1, T2, L1, L1, L1, L1, L1, L1, L1
                    | L1, L1, L1, T2, L1, L1, L1, L1, L1, L1
                    | L1, L1, L1, L1, T2, L1, L1, L1, L1, L1
                    | L1, L1, L1, L1, L1, T2, L1, L1, L1, L1
                    | L1, L1, L1, L1, L1, L1, T2, L1, L1, L1
                    | L1, L1, L1, L1, L1, L1, L1, T2, L1, L1
                    | L1, L1, L1, L1, L1, L1, L1, L1, T2, L1
                    | L1, L1, L1, L1, L1, L1, L1, L1, L1, T2
                    | T2, L1, L1, L1, L1, L1, L1, L1, L1, L1
                    | L1, T2, L1, L1, L1, L1, L1, L1, L1, L1
                    | L1, L1, T2, L1, L1, L1, L1, L1, L1, L1
                    | L1, L1, L1, T2, L1, L1, L1, L1, L1, L1
                    | L1, L1, L1, L1, T2, L1, L1, L1, L1, L1
                    | L1, L1, L1, L1, L1, T2, L1, L1, L1, L1
                    |];